; benchmark generated from python API
(set-info :status unknown)
(declare-datatypes ((RealState 0)) (((RMk1 (rval1 Real)) (RMk2 (rval2 Real)))))
 (assert
 (forall ((|v9:0| Real) )(exists ((|v8:1_st| RealState) (val!175 Real) )(forall ((|v7:2| Real) )(exists ((|v6:3_st| RealState) (val!176 Real) )(forall ((|v5:4| Real) )(exists ((|v4:5_st| RealState) (val!177 Real) )(forall ((|v3:6| Real) )(exists ((|v2:7_st| RealState) (val!178 Real) )(forall ((|v1:8| Real) )(exists ((|v0:9_st| RealState) (val!179 Real) )(let ((?x1161 (- 9.0)))
 (let ((?x107 (rval2 |v6:3_st|)))
 (let ((?x1353 (* 11.0 ?x107)))
 (let ((?x38 (- 18.0)))
 (let (($x29 (<= (+ (+ (* 12.0 |v3:6|) (* 3.0 |v5:4|)) (* (- 11.0) ?x107)) ?x38)))
 (let (($x857 (or $x29 (<= (+ (+ (* (- 11.0) |v3:6|) (* 18.0 (rval2 |v8:1_st|))) ?x1353) ?x1161))))
 (let ((?x205 (- 7.0)))
 (let (($x772 (<= (+ (+ (* (- 8.0) |v7:2|) (* (- 3.0) |v7:2|)) (* 4.0 |v5:4|)) ?x205)))
 (let ((?x1384 (rval2 |v0:9_st|)))
 (let ((?x837 (- 19.0)))
 (let ((?x1120 (* ?x837 ?x1384)))
 (let (($x846 (and (<= (+ (+ (* 17.0 |v5:4|) (* 4.0 (rval2 |v8:1_st|))) ?x1120) 4.0) $x772)))
 (let (($x607 (<= (+ (+ (* 19.0 (rval2 |v8:1_st|)) (* 17.0 |v3:6|)) (rval2 |v8:1_st|)) 20.0)))
 (let ((?x854 (- 6.0)))
 (let ((?x1286 (+ (+ (* (- 16.0) |v7:2|) (* (- 3.0) (rval2 |v4:5_st|))) (* 15.0 ?x1384))))
 (let ((?x749 (- 12.0)))
 (let ((?x443 (+ (+ (* 15.0 (rval2 |v4:5_st|)) (* 20.0 |v5:4|)) (* (- 4.0) (rval2 |v8:1_st|)))))
 (let ((?x1336 (+ (+ (* (- 2.0) (rval2 |v4:5_st|)) (* (- 1.0) (rval2 |v2:7_st|))) (* ?x1161 |v7:2|))))
 (let ((?x591 (- 16.0)))
 (let ((?x151 (* 11.0 |v1:8|)))
 (let (($x1307 (<= (+ (+ (* (- 1.0) (rval2 |v8:1_st|)) (* 4.0 (rval2 |v4:5_st|))) ?x151) ?x591)))
 (let (($x802 (<= (+ (+ (* (- 11.0) ?x1384) (* 12.0 (rval2 |v2:7_st|))) (* ?x749 |v5:4|)) ?x837)))
 (let (($x686 (<= (+ (+ (* 19.0 |v5:4|) (* (- 14.0) |v9:0|)) (* (- 17.0) |v9:0|)) 14.0)))
 (let ((?x384 (- 15.0)))
 (let (($x81 (<= (+ (+ (* 17.0 (rval2 |v4:5_st|)) (* 20.0 |v7:2|)) (* 17.0 |v5:4|)) ?x384)))
 (let (($x757 (or $x81 (<= (+ (+ (* 3.0 (rval2 |v4:5_st|)) (* 16.0 |v5:4|)) ?x1120) 10.0))))
 (let (($x32 (<= (+ (+ (* (- 17.0) |v5:4|) (* ?x38 |v5:4|)) (* 4.0 ?x107)) 8.0)))
 (let (($x84 (<= (+ (+ (* 16.0 |v7:2|) (* ?x854 ?x107)) (* (- 4.0) |v9:0|)) 7.0)))
 (let (($x277 (and (and (or $x84 $x32) $x757) (or (and $x686 $x802) (or $x1307 (<= ?x1336 14.0))))))
 (let (($x288 (and $x277 (or (or (<= ?x443 ?x749) (or (<= ?x1286 ?x854) $x607)) (or $x846 $x857)))))
 (let ((?x162 (+ (+ (* ?x1161 (rval2 |v2:7_st|)) (* ?x38 |v3:6|)) (* (- 3.0) (rval2 |v2:7_st|)))))
 (let ((?x331 (+ (+ (* 10.0 (rval2 |v4:5_st|)) (* ?x837 (rval2 |v4:5_st|))) (* 16.0 (rval2 |v4:5_st|)))))
 (let (($x67 (<= (+ (+ (* 15.0 (rval2 |v4:5_st|)) (* ?x591 |v9:0|)) (* 7.0 |v9:0|)) 11.0)))
 (let (($x1065 (and $x67 (<= (+ (+ (* ?x1161 |v3:6|) (* 8.0 |v9:0|)) (* ?x1161 ?x1384)) ?x38))))
 (let ((?x674 (- 2.0)))
 (let (($x670 (or (<= (+ (+ (* ?x384 |v9:0|) (* 2.0 |v1:8|)) (* 17.0 |v7:2|)) ?x674) (and $x1065 (or (<= ?x331 14.0) (<= ?x162 11.0))))))
 (let (($x257 (<= (+ (+ (* (- 11.0) ?x1384) (* 16.0 (rval2 |v2:7_st|))) (* 5.0 |v3:6|)) 9.0)))
 (let ((?x355 (- 13.0)))
 (let (($x784 (<= (+ (+ (* (- 20.0) (rval2 |v2:7_st|)) (* 6.0 |v9:0|)) (* 7.0 |v1:8|)) ?x355)))
 (let ((?x1260 (- 10.0)))
 (let (($x359 (<= (+ (+ (* 5.0 |v9:0|) (* 4.0 (rval2 |v2:7_st|))) (* 17.0 |v5:4|)) ?x1260)))
 (let (($x1067 (and $x359 (<= (+ (+ (* 10.0 |v7:2|) (* 2.0 |v5:4|)) (* 20.0 ?x107)) 9.0))))
 (let (($x203 (<= (+ (+ (* 14.0 (rval2 |v8:1_st|)) (* (- 14.0) |v7:2|)) (* ?x749 ?x107)) 3.0)))
 (let (($x163 (<= (+ (+ (* (- 5.0) |v7:2|) (* 12.0 (rval2 |v8:1_st|))) (* 8.0 |v5:4|)) 12.0)))
 (let ((?x513 (- 1.0)))
 (let (($x907 (<= (+ (+ (* 13.0 |v5:4|) (* 13.0 |v7:2|)) (* (- 3.0) |v7:2|)) ?x513)))
 (let ((?x764 (+ (+ (* 5.0 (rval2 |v2:7_st|)) (* 14.0 (rval2 |v8:1_st|))) (* (- 8.0) |v1:8|))))
 (let (($x155 (or (or (or (<= ?x764 20.0) $x907) (and $x163 $x203)) (or $x1067 (or $x784 $x257)))))
 (let (($x945 (not (= |v0:9_st| (RMk1 val!179)))))
 (let (($x729 (not (= |v2:7_st| (RMk1 val!178)))))
 (let (($x655 (not (= |v4:5_st| (RMk1 val!177)))))
 (let (($x501 (not (= |v6:3_st| (RMk1 val!176)))))
 (let (($x699 (not (= |v8:1_st| (RMk1 val!175)))))
 (and $x699 $x501 $x655 $x729 $x945 (or (and $x155 $x670) $x288))))))))))))))))))))))))))))))))))))))))))))))))))))))))
 )
 )
 )
 )
 )
 )
 )
 )
 )
 )
(check-sat)
